(set-info :source |printed by MathSAT|)
(declare-fun param__B1_.next () Bool)
(declare-fun nS.next () Int)
(declare-fun call_Sofar.flby.next () Bool)
(declare-fun call__main_.call_hypothese.ite2.next () Bool)
(declare-fun call__main_.call_controleur2.diff () Int)
(declare-fun call__main_.call_hypothese2.ite2.next () Bool)
(declare-fun retard0.next () Bool)
(declare-fun call_Sofar.Sofar.next () Bool)
(declare-fun _OK_ () Bool)
(declare-fun call__main_.call_controleur.avance () Bool)
(declare-fun call__main_.call_controleur.flby.next () Bool)
(declare-fun call__main_.call_hypothese2.flby2.next () Int)
(declare-fun call__main_.retard1.next () Bool)
(declare-fun call__main_.call_controleur2.avance () Bool)
(declare-fun nB1.next () Int)
(declare-fun call__main_.ite2.next () Int)
(declare-fun avance0.next () Bool)
(declare-fun call__main_.retard0 () Bool)
(declare-fun avance1 () Bool)
(declare-fun call__main_.call_hypothese.flby.next () Bool)
(declare-fun call__main_.call_controleur2.flby () Bool)
(declare-fun call__main_.nS.next () Int)
(declare-fun nB0 () Int)
(declare-fun call__main_.call_controleur2.retard () Bool)
(declare-fun call__main_.call_controleur2.flby2.next () Bool)
(declare-fun call__main_.call_controleur.flby2.next () Bool)
(declare-fun nB0.next () Int)
(declare-fun call__main_.call_controleur2.flby2 () Bool)
(declare-fun call__main_.call_hypothese2.flby.next () Bool)
(declare-fun call__main_.flby3.next () Int)
(declare-fun call__main_.nB0 () Int)
(declare-fun call__main_.flby2 () Int)
(declare-fun call__main_.ast.next () Bool)
(declare-fun call__main_.call_hypothese2.flby () Bool)
(declare-fun call__main_.call_controleur.retard () Bool)
(declare-fun ast () Bool)
(declare-fun call__main_.call_hypothese2.flby2 () Int)
(declare-fun call__main_.call_hypothese2.c.next () Int)
(declare-fun call__main_.call_hypothese2.ite3.next () Int)
(declare-fun call__main_.call_controleur.flby2 () Bool)
(declare-fun diff0.next () Int)
(declare-fun diff0 () Int)
(declare-fun call__main_.retard0.next () Bool)
(declare-fun call__main_.flby () Int)
(declare-fun call__main_.call_hypothese.ok () Bool)
(declare-fun call__main_.retard1 () Bool)
(declare-fun flby () Bool)
(declare-fun retard1 () Bool)
(declare-fun call__main_.call_controleur.diff () Int)
(declare-fun call__main_.nB1.next () Int)
(declare-fun param__B0_.next () Bool)
(declare-fun _OK_.next () Bool)
(declare-fun call__main_.call_controleur.retard.next () Bool)
(declare-fun call__main_.call_hypothese2.ok () Bool)
(declare-fun call__main_.call_hypothese2.c () Int)
(declare-fun ast.next () Bool)
(declare-fun call_Sofar.flby () Bool)
(declare-fun call__main_.call_hypothese.ite3.next () Int)
(declare-fun call__main_.call_hypothese2.ite.next () Bool)
(declare-fun call__main_._H0_.next () Bool)
(declare-fun call__main_.call_hypothese.ok.next () Bool)
(declare-fun call__main_.ast () Bool)
(declare-fun call__main_.call_controleur2.ite.next () Bool)
(declare-fun call__main_.call_controleur.flby () Bool)
(declare-fun call__main_.call_hypothese.flby2.next () Int)
(declare-fun call__main_.diff0 () Int)
(declare-fun call__main_.call_hypothese2.ite4.next () Int)
(declare-fun call__main_.call_hypothese.flby2 () Int)
(declare-fun avance1.next () Bool)
(declare-fun param__S_.next () Bool)
(declare-fun call__main_.call_hypothese.ite.next () Bool)
(declare-fun call__main_._H0_ () Bool)
(declare-fun avance0 () Bool)
(declare-fun call__main_.call_hypothese.c.next () Int)
(declare-fun diff1 () Int)
(declare-fun call__main_.diff0.next () Int)
(declare-fun call__main_.call_controleur.diff.next () Int)
(declare-fun call__main_.call_controleur2.ite2.next () Bool)
(declare-fun flby.next () Bool)
(declare-fun call__main_._H1_.next () Bool)
(declare-fun call__main_.call_controleur2.avance.next () Bool)
(declare-fun nS () Int)
(declare-fun call__main_.call_hypothese.ite4.next () Int)
(declare-fun call__main_.flby.next () Int)
(declare-fun call__main_.diff1 () Int)
(declare-fun call_Sofar.Sofar () Bool)
(declare-fun call__main_.call_controleur2.diff.next () Int)
(declare-fun call__main_.avance0 () Bool)
(declare-fun call__main_.nB0.next () Int)
(declare-fun call__main_.call_controleur2.flby.next () Bool)
(declare-fun call__main_.nS () Int)
(declare-fun call__main_.avance1.next () Bool)
(declare-fun diff1.next () Int)
(declare-fun call__main_.call_hypothese.flby () Bool)
(declare-fun call__main_._H1_ () Bool)
(declare-fun call__main_.call_controleur.avance.next () Bool)
(declare-fun call__main_.call_controleur.ite.next () Bool)
(declare-fun call__main_.ite.next () Int)
(declare-fun call__main_.flby3 () Int)
(declare-fun call__main_.avance1 () Bool)
(declare-fun call__main_.call_hypothese2.ok.next () Bool)
(declare-fun call__main_.call_hypothese.c () Int)
(declare-fun call__main_.flby2.next () Int)
(declare-fun call__main_.avance0.next () Bool)
(declare-fun retard1.next () Bool)
(declare-fun call__main_.diff1.next () Int)
(declare-fun call__main_.nB1 () Int)
(declare-fun retard0 () Bool)
(declare-fun nB1 () Int)
(declare-fun call__main_.call_controleur.ite2.next () Bool)
(declare-fun call__main_.call_controleur2.retard.next () Bool)
(declare-fun call__main_.ite3.next () Int)
(define-fun .def_905 () Bool (= call_Sofar.flby.next call_Sofar.Sofar.next))
(define-fun .def_902 () Bool (= call__main_.call_controleur2.flby2.next call__main_.call_controleur2.retard.next))
(define-fun .def_900 () Bool (= call__main_.call_controleur2.flby.next call__main_.call_controleur2.avance.next))
(define-fun .def_893 () Int (* (- 1) call__main_.nB1.next))
(define-fun .def_896 () Int (+ .def_893 call__main_.nS.next))
(define-fun .def_897 () Int (+ call__main_.call_controleur2.diff.next .def_896))
(define-fun .def_898 () Bool (= .def_897 0))
(define-fun .def_891 () Bool (= call__main_.call_controleur.flby2.next call__main_.call_controleur.retard.next))
(define-fun .def_889 () Bool (= call__main_.call_controleur.flby.next call__main_.call_controleur.avance.next))
(define-fun .def_882 () Int (* (- 1) call__main_.nB0.next))
(define-fun .def_885 () Int (+ .def_882 call__main_.nS.next))
(define-fun .def_886 () Int (+ call__main_.call_controleur.diff.next .def_885))
(define-fun .def_887 () Bool (= .def_886 0))
(define-fun .def_880 () Bool (= call__main_.call_hypothese2.flby2.next call__main_.call_hypothese2.c.next))
(define-fun .def_877 () Bool (= call__main_.call_hypothese2.flby.next call__main_.call_hypothese2.ok.next))
(define-fun .def_875 () Bool (= call__main_.call_hypothese.flby2.next call__main_.call_hypothese.c.next))
(define-fun .def_872 () Bool (= call__main_.call_hypothese.flby.next call__main_.call_hypothese.ok.next))
(define-fun .def_870 () Bool (= call__main_._H1_.next call__main_.call_hypothese2.ok.next))
(define-fun .def_867 () Bool (= call__main_._H0_.next call__main_.call_hypothese.ok.next))
(define-fun .def_864 () Bool (= call__main_.retard1.next call__main_.call_controleur2.retard.next))
(define-fun .def_861 () Bool (= call__main_.retard0.next call__main_.call_controleur.retard.next))
(define-fun .def_858 () Bool (= call__main_.avance1.next call__main_.call_controleur2.avance.next))
(define-fun .def_855 () Bool (= call__main_.avance0.next call__main_.call_controleur.avance.next))
(define-fun .def_852 () Bool (= call__main_.call_controleur2.diff.next call__main_.diff1.next))
(define-fun .def_850 () Bool (= call__main_.call_controleur.diff.next call__main_.diff0.next))
(define-fun .def_848 () Bool (= call__main_.flby3.next call__main_.nS.next))
(define-fun .def_846 () Bool (= call__main_.flby2.next call__main_.nB1.next))
(define-fun .def_844 () Bool (= call__main_.flby.next call__main_.nB0.next))
(define-fun .def_841 () Bool (and call__main_._H0_.next call__main_._H1_.next))
(define-fun .def_842 () Bool (= call__main_.ast.next .def_841))
(define-fun .def_837 () Bool (= ast.next call__main_.ast.next))
(define-fun .def_834 () Bool (= retard1.next call__main_.retard1.next))
(define-fun .def_830 () Bool (= retard0.next call__main_.retard0.next))
(define-fun .def_826 () Bool (= call__main_.avance1.next avance1.next))
(define-fun .def_823 () Bool (= call__main_.avance0.next avance0.next))
(define-fun .def_820 () Bool (= diff1.next call__main_.diff1.next))
(define-fun .def_816 () Bool (= diff0.next call__main_.diff0.next))
(define-fun .def_812 () Bool (= nS.next call__main_.nS.next))
(define-fun .def_808 () Bool (= nB1.next call__main_.nB1.next))
(define-fun .def_804 () Bool (= nB0.next call__main_.nB0.next))
(define-fun .def_801 () Bool (= flby.next _OK_.next))
(define-fun .def_805 () Bool (and .def_801 .def_804))
(define-fun .def_809 () Bool (and .def_805 .def_808))
(define-fun .def_813 () Bool (and .def_809 .def_812))
(define-fun .def_817 () Bool (and .def_813 .def_816))
(define-fun .def_821 () Bool (and .def_817 .def_820))
(define-fun .def_824 () Bool (and .def_821 .def_823))
(define-fun .def_827 () Bool (and .def_824 .def_826))
(define-fun .def_831 () Bool (and .def_827 .def_830))
(define-fun .def_835 () Bool (and .def_831 .def_834))
(define-fun .def_838 () Bool (and .def_835 .def_837))
(define-fun .def_843 () Bool (and .def_838 .def_842))
(define-fun .def_845 () Bool (and .def_843 .def_844))
(define-fun .def_847 () Bool (and .def_845 .def_846))
(define-fun .def_849 () Bool (and .def_847 .def_848))
(define-fun .def_851 () Bool (and .def_849 .def_850))
(define-fun .def_853 () Bool (and .def_851 .def_852))
(define-fun .def_856 () Bool (and .def_853 .def_855))
(define-fun .def_859 () Bool (and .def_856 .def_858))
(define-fun .def_862 () Bool (and .def_859 .def_861))
(define-fun .def_865 () Bool (and .def_862 .def_864))
(define-fun .def_868 () Bool (and .def_865 .def_867))
(define-fun .def_871 () Bool (and .def_868 .def_870))
(define-fun .def_873 () Bool (and .def_871 .def_872))
(define-fun .def_876 () Bool (and .def_873 .def_875))
(define-fun .def_878 () Bool (and .def_876 .def_877))
(define-fun .def_881 () Bool (and .def_878 .def_880))
(define-fun .def_888 () Bool (and .def_881 .def_887))
(define-fun .def_890 () Bool (and .def_888 .def_889))
(define-fun .def_892 () Bool (and .def_890 .def_891))
(define-fun .def_899 () Bool (and .def_892 .def_898))
(define-fun .def_901 () Bool (and .def_899 .def_900))
(define-fun .def_903 () Bool (and .def_901 .def_902))
(define-fun .def_906 () Bool (and .def_903 .def_905))
(define-fun .def_612 () Bool (= call_Sofar.flby call_Sofar.Sofar))
(define-fun .def_609 () Bool (= call__main_.call_controleur2.flby2 call__main_.call_controleur2.retard))
(define-fun .def_607 () Bool (= call__main_.call_controleur2.flby call__main_.call_controleur2.avance))
(define-fun .def_602 () Int (* (- 1) call__main_.call_controleur2.diff))
(define-fun .def_590 () Int (* (- 1) call__main_.nS))
(define-fun .def_603 () Int (+ .def_590 .def_602))
(define-fun .def_604 () Int (+ call__main_.nB1 .def_603))
(define-fun .def_605 () Bool (= .def_604 0))
(define-fun .def_597 () Bool (= call__main_.call_controleur.flby2 call__main_.call_controleur.retard))
(define-fun .def_595 () Bool (= call__main_.call_controleur.flby call__main_.call_controleur.avance))
(define-fun .def_589 () Int (* (- 1) call__main_.call_controleur.diff))
(define-fun .def_591 () Int (+ .def_590 .def_589))
(define-fun .def_592 () Int (+ call__main_.nB0 .def_591))
(define-fun .def_593 () Bool (= .def_592 0))
(define-fun .def_584 () Bool (= call__main_.call_hypothese2.flby2 call__main_.call_hypothese2.c))
(define-fun .def_581 () Bool (= call__main_.call_hypothese2.flby call__main_.call_hypothese2.ok))
(define-fun .def_579 () Bool (= call__main_.call_hypothese.flby2 call__main_.call_hypothese.c))
(define-fun .def_576 () Bool (= call__main_.call_hypothese.flby call__main_.call_hypothese.ok))
(define-fun .def_574 () Bool (= call__main_._H1_ call__main_.call_hypothese2.ok))
(define-fun .def_571 () Bool (= call__main_._H0_ call__main_.call_hypothese.ok))
(define-fun .def_568 () Bool (= call__main_.retard1 call__main_.call_controleur2.retard))
(define-fun .def_565 () Bool (= call__main_.retard0 call__main_.call_controleur.retard))
(define-fun .def_562 () Bool (= call__main_.avance1 call__main_.call_controleur2.avance))
(define-fun .def_559 () Bool (= call__main_.avance0 call__main_.call_controleur.avance))
(define-fun .def_556 () Bool (= call__main_.diff1 call__main_.call_controleur2.diff))
(define-fun .def_553 () Bool (= call__main_.diff0 call__main_.call_controleur.diff))
(define-fun .def_550 () Bool (= call__main_.flby3 call__main_.nS))
(define-fun .def_548 () Bool (= call__main_.flby2 call__main_.nB1))
(define-fun .def_546 () Bool (= call__main_.flby call__main_.nB0))
(define-fun .def_543 () Bool (and call__main_._H0_ call__main_._H1_))
(define-fun .def_544 () Bool (= call__main_.ast .def_543))
(define-fun .def_539 () Bool (= ast call__main_.ast))
(define-fun .def_536 () Bool (= retard1 call__main_.retard1))
(define-fun .def_532 () Bool (= retard0 call__main_.retard0))
(define-fun .def_528 () Bool (= avance1 call__main_.avance1))
(define-fun .def_524 () Bool (= avance0 call__main_.avance0))
(define-fun .def_520 () Bool (= diff1 call__main_.diff1))
(define-fun .def_516 () Bool (= diff0 call__main_.diff0))
(define-fun .def_512 () Bool (= nS call__main_.nS))
(define-fun .def_508 () Bool (= nB1 call__main_.nB1))
(define-fun .def_504 () Bool (= nB0 call__main_.nB0))
(define-fun .def_501 () Bool (= flby _OK_))
(define-fun .def_505 () Bool (and .def_501 .def_504))
(define-fun .def_509 () Bool (and .def_505 .def_508))
(define-fun .def_513 () Bool (and .def_509 .def_512))
(define-fun .def_517 () Bool (and .def_513 .def_516))
(define-fun .def_521 () Bool (and .def_517 .def_520))
(define-fun .def_525 () Bool (and .def_521 .def_524))
(define-fun .def_529 () Bool (and .def_525 .def_528))
(define-fun .def_533 () Bool (and .def_529 .def_532))
(define-fun .def_537 () Bool (and .def_533 .def_536))
(define-fun .def_540 () Bool (and .def_537 .def_539))
(define-fun .def_545 () Bool (and .def_540 .def_544))
(define-fun .def_547 () Bool (and .def_545 .def_546))
(define-fun .def_549 () Bool (and .def_547 .def_548))
(define-fun .def_551 () Bool (and .def_549 .def_550))
(define-fun .def_554 () Bool (and .def_551 .def_553))
(define-fun .def_557 () Bool (and .def_554 .def_556))
(define-fun .def_560 () Bool (and .def_557 .def_559))
(define-fun .def_563 () Bool (and .def_560 .def_562))
(define-fun .def_566 () Bool (and .def_563 .def_565))
(define-fun .def_569 () Bool (and .def_566 .def_568))
(define-fun .def_572 () Bool (and .def_569 .def_571))
(define-fun .def_575 () Bool (and .def_572 .def_574))
(define-fun .def_577 () Bool (and .def_575 .def_576))
(define-fun .def_580 () Bool (and .def_577 .def_579))
(define-fun .def_582 () Bool (and .def_580 .def_581))
(define-fun .def_585 () Bool (and .def_582 .def_584))
(define-fun .def_594 () Bool (and .def_585 .def_593))
(define-fun .def_596 () Bool (and .def_594 .def_595))
(define-fun .def_598 () Bool (and .def_596 .def_597))
(define-fun .def_606 () Bool (and .def_598 .def_605))
(define-fun .def_608 () Bool (and .def_606 .def_607))
(define-fun .def_610 () Bool (and .def_608 .def_609))
(define-fun .def_613 () Bool (and .def_610 .def_612))
(define-fun .def_907 () Bool (and .def_613 .def_906))
(define-fun .def_796 () Bool (and call_Sofar.Sofar ast.next))
(define-fun .def_798 () Bool (= .def_796 call_Sofar.flby.next))
(define-fun .def_793 () Bool (= call__main_.call_controleur2.ite2.next call__main_.call_controleur2.flby2.next))
(define-fun .def_790 () Bool (= call__main_.call_controleur2.ite.next call__main_.call_controleur2.flby.next))
(define-fun .def_783 () Bool (<= 0 call__main_.call_controleur2.diff.next))
(define-fun .def_784 () Bool (not .def_783))
(define-fun .def_785 () Bool (= call__main_.call_controleur2.ite2.next .def_784))
(define-fun .def_782 () Bool (not call__main_.call_controleur2.retard))
(define-fun .def_786 () Bool (or .def_782 .def_785))
(define-fun .def_777 () Bool (<= call__main_.call_controleur2.diff.next (- 10)))
(define-fun .def_779 () Bool (= .def_777 call__main_.call_controleur2.ite2.next))
(define-fun .def_780 () Bool (or call__main_.call_controleur2.retard .def_779))
(define-fun .def_773 () Bool (<= 10 call__main_.call_controleur2.diff.next))
(define-fun .def_774 () Bool (= call__main_.call_controleur2.ite.next .def_773))
(define-fun .def_775 () Bool (or call__main_.call_controleur2.avance .def_774))
(define-fun .def_768 () Bool (<= call__main_.call_controleur2.diff.next 0))
(define-fun .def_769 () Bool (not .def_768))
(define-fun .def_771 () Bool (= .def_769 call__main_.call_controleur2.ite.next))
(define-fun .def_766 () Bool (not call__main_.call_controleur2.avance))
(define-fun .def_772 () Bool (or .def_766 .def_771))
(define-fun .def_776 () Bool (and .def_772 .def_775))
(define-fun .def_781 () Bool (and .def_776 .def_780))
(define-fun .def_787 () Bool (and .def_781 .def_786))
(define-fun .def_764 () Bool (= call__main_.call_controleur.ite2.next call__main_.call_controleur.flby2.next))
(define-fun .def_761 () Bool (= call__main_.call_controleur.ite.next call__main_.call_controleur.flby.next))
(define-fun .def_754 () Bool (<= 0 call__main_.call_controleur.diff.next))
(define-fun .def_755 () Bool (not .def_754))
(define-fun .def_756 () Bool (= call__main_.call_controleur.ite2.next .def_755))
(define-fun .def_753 () Bool (not call__main_.call_controleur.retard))
(define-fun .def_757 () Bool (or .def_753 .def_756))
(define-fun .def_748 () Bool (<= call__main_.call_controleur.diff.next (- 10)))
(define-fun .def_750 () Bool (= .def_748 call__main_.call_controleur.ite2.next))
(define-fun .def_751 () Bool (or call__main_.call_controleur.retard .def_750))
(define-fun .def_744 () Bool (<= 10 call__main_.call_controleur.diff.next))
(define-fun .def_745 () Bool (= call__main_.call_controleur.ite.next .def_744))
(define-fun .def_746 () Bool (or call__main_.call_controleur.avance .def_745))
(define-fun .def_739 () Bool (<= call__main_.call_controleur.diff.next 0))
(define-fun .def_740 () Bool (not .def_739))
(define-fun .def_742 () Bool (= .def_740 call__main_.call_controleur.ite.next))
(define-fun .def_737 () Bool (not call__main_.call_controleur.avance))
(define-fun .def_743 () Bool (or .def_737 .def_742))
(define-fun .def_747 () Bool (and .def_743 .def_746))
(define-fun .def_752 () Bool (and .def_747 .def_751))
(define-fun .def_758 () Bool (and .def_752 .def_757))
(define-fun .def_735 () Bool (= call__main_.call_hypothese2.ite4.next call__main_.call_hypothese2.flby2.next))
(define-fun .def_730 () Bool (and call__main_.call_hypothese2.ite2.next call__main_.call_hypothese2.ite.next))
(define-fun .def_732 () Bool (= .def_730 call__main_.call_hypothese2.flby.next))
(define-fun .def_622 () Bool (<= 9 call__main_.call_hypothese2.c))
(define-fun .def_728 () Bool (or call__main_.call_hypothese2.ite2.next .def_622))
(define-fun .def_726 () Bool (= call__main_.call_hypothese.ite4.next call__main_.call_hypothese.flby2.next))
(define-fun .def_721 () Bool (and call__main_.call_hypothese.ite2.next call__main_.call_hypothese.ite.next))
(define-fun .def_723 () Bool (= .def_721 call__main_.call_hypothese.flby.next))
(define-fun .def_644 () Bool (<= 9 call__main_.call_hypothese.c))
(define-fun .def_719 () Bool (or call__main_.call_hypothese.ite2.next .def_644))
(define-fun .def_717 () Bool (= call__main_.ite3.next call__main_.flby3.next))
(define-fun .def_714 () Bool (= call__main_.ite2.next call__main_.flby2.next))
(define-fun .def_711 () Bool (= call__main_.ite.next call__main_.flby.next))
(define-fun .def_708 () Bool (or call__main_.retard1 call__main_.call_hypothese2.ite.next))
(define-fun .def_706 () Bool (or call__main_.retard0 call__main_.call_hypothese.ite.next))
(define-fun .def_699 () Bool (and call__main_.avance1 call__main_.avance1.next))
(define-fun .def_702 () Bool (not .def_699))
(define-fun .def_701 () Bool (= call__main_.call_hypothese2.ite3.next call__main_.call_hypothese2.ite4.next))
(define-fun .def_703 () Bool (or .def_701 .def_702))
(define-fun .def_697 () Bool (= call__main_.call_hypothese2.ite4.next 0))
(define-fun .def_700 () Bool (or .def_697 .def_699))
(define-fun .def_704 () Bool (and .def_700 .def_703))
(define-fun .def_689 () Bool (and call__main_.avance0 call__main_.avance0.next))
(define-fun .def_692 () Bool (not .def_689))
(define-fun .def_691 () Bool (= call__main_.call_hypothese.ite3.next call__main_.call_hypothese.ite4.next))
(define-fun .def_693 () Bool (or .def_691 .def_692))
(define-fun .def_687 () Bool (= call__main_.call_hypothese.ite4.next 0))
(define-fun .def_690 () Bool (or .def_687 .def_689))
(define-fun .def_694 () Bool (and .def_690 .def_693))
(define-fun .def_681 () Int (+ nB0 nB1))
(define-fun .def_682 () Bool (<= .def_681 30))
(define-fun .def_684 () Bool (= .def_682 flby.next))
(define-fun .def_677 () Bool (= call__main_.nS call__main_.ite3.next))
(define-fun .def_678 () Bool (or param__S_.next .def_677))
(define-fun .def_672 () Int (* (- 1) call__main_.ite3.next))
(define-fun .def_673 () Int (+ call__main_.nS .def_672))
(define-fun .def_674 () Bool (= .def_673 (- 1)))
(define-fun .def_661 () Bool (not param__S_.next))
(define-fun .def_675 () Bool (or .def_661 .def_674))
(define-fun .def_668 () Bool (not call__main_.retard0))
(define-fun .def_667 () Bool (= .def_661 call__main_.call_hypothese.ite.next))
(define-fun .def_669 () Bool (or .def_667 .def_668))
(define-fun .def_664 () Bool (not call__main_.retard1))
(define-fun .def_663 () Bool (= .def_661 call__main_.call_hypothese2.ite.next))
(define-fun .def_665 () Bool (or .def_663 .def_664))
(define-fun .def_670 () Bool (and .def_665 .def_669))
(define-fun .def_676 () Bool (and .def_670 .def_675))
(define-fun .def_679 () Bool (and .def_676 .def_678))
(define-fun .def_656 () Bool (= call__main_.nB0 call__main_.ite.next))
(define-fun .def_657 () Bool (or param__B0_.next .def_656))
(define-fun .def_651 () Int (* (- 1) call__main_.ite.next))
(define-fun .def_652 () Int (+ call__main_.nB0 .def_651))
(define-fun .def_653 () Bool (= .def_652 (- 1)))
(define-fun .def_640 () Bool (not param__B0_.next))
(define-fun .def_654 () Bool (or .def_640 .def_653))
(define-fun .def_638 () Bool (= call__main_.call_hypothese.c call__main_.call_hypothese.ite3.next))
(define-fun .def_648 () Bool (or .def_638 param__B0_.next))
(define-fun .def_645 () Bool (not .def_644))
(define-fun .def_643 () Bool (= .def_640 call__main_.call_hypothese.ite2.next))
(define-fun .def_646 () Bool (or .def_643 .def_645))
(define-fun .def_641 () Bool (or .def_638 .def_640))
(define-fun .def_647 () Bool (and .def_641 .def_646))
(define-fun .def_649 () Bool (and .def_647 .def_648))
(define-fun .def_655 () Bool (and .def_649 .def_654))
(define-fun .def_658 () Bool (and .def_655 .def_657))
(define-fun .def_634 () Bool (= call__main_.nB1 call__main_.ite2.next))
(define-fun .def_635 () Bool (or param__B1_.next .def_634))
(define-fun .def_629 () Int (* (- 1) call__main_.ite2.next))
(define-fun .def_630 () Int (+ call__main_.nB1 .def_629))
(define-fun .def_631 () Bool (= .def_630 (- 1)))
(define-fun .def_618 () Bool (not param__B1_.next))
(define-fun .def_632 () Bool (or .def_618 .def_631))
(define-fun .def_616 () Bool (= call__main_.call_hypothese2.c call__main_.call_hypothese2.ite3.next))
(define-fun .def_626 () Bool (or .def_616 param__B1_.next))
(define-fun .def_623 () Bool (not .def_622))
(define-fun .def_621 () Bool (= .def_618 call__main_.call_hypothese2.ite2.next))
(define-fun .def_624 () Bool (or .def_621 .def_623))
(define-fun .def_619 () Bool (or .def_616 .def_618))
(define-fun .def_625 () Bool (and .def_619 .def_624))
(define-fun .def_627 () Bool (and .def_625 .def_626))
(define-fun .def_633 () Bool (and .def_627 .def_632))
(define-fun .def_636 () Bool (and .def_633 .def_635))
(define-fun .def_659 () Bool (and .def_636 .def_658))
(define-fun .def_680 () Bool (and .def_659 .def_679))
(define-fun .def_685 () Bool (and .def_680 .def_684))
(define-fun .def_695 () Bool (and .def_685 .def_694))
(define-fun .def_705 () Bool (and .def_695 .def_704))
(define-fun .def_707 () Bool (and .def_705 .def_706))
(define-fun .def_709 () Bool (and .def_707 .def_708))
(define-fun .def_712 () Bool (and .def_709 .def_711))
(define-fun .def_715 () Bool (and .def_712 .def_714))
(define-fun .def_718 () Bool (and .def_715 .def_717))
(define-fun .def_720 () Bool (and .def_718 .def_719))
(define-fun .def_724 () Bool (and .def_720 .def_723))
(define-fun .def_727 () Bool (and .def_724 .def_726))
(define-fun .def_729 () Bool (and .def_727 .def_728))
(define-fun .def_733 () Bool (and .def_729 .def_732))
(define-fun .def_736 () Bool (and .def_733 .def_735))
(define-fun .def_759 () Bool (and .def_736 .def_758))
(define-fun .def_762 () Bool (and .def_759 .def_761))
(define-fun .def_765 () Bool (and .def_762 .def_764))
(define-fun .def_788 () Bool (and .def_765 .def_787))
(define-fun .def_791 () Bool (and .def_788 .def_790))
(define-fun .def_794 () Bool (and .def_791 .def_793))
(define-fun .def_799 () Bool (and .def_794 .def_798))
(define-fun .def_908 () Bool (and .def_799 .def_907))
(assert .def_908)
